Route #1: 5 99 92 150 30
Route #2: 11
Route #3: 90 37 73 142 54 93 55 121 26 58 69 71
Route #4: 7 6 36
Route #5: 29 9 40 139
Route #6: 42 104 64 82 115 17 38 75 124 57 53
Route #7: 21
Route #8: 34 13 32 67 35 106 125 111 131 65 147
Route #9: 47 89 1 109 28 60 86 141 149 87 102
Route #10: 83 130 146 33 63 68 138 2 16 143
Route #11: 95 25
Route #12: 129 49 14 110 105 74
Route #13: 19 31 140 116 12 152 112 84
Route #14: 15 23 144 41 88
Route #15: 107 120 78 27 62 101 61 80 24 79 136 123 113 145 66 39
Route #16: 103 127 56 132 96 22 3 4 44 128
Route #17: 117 45 148 98 50 85 76 118 43 151 97 18 114 81 135 77 48 8
Route #18: 134 94 108 46 133 126 119 91 137 100 70 59 122 51 10 72 20 52
Cost 17051.000000